194
297
78
90
94
52
139
162
261
71
275
165
157
97
239
217
123
0
127
177
87
213
216
270
284
103
183
106
218
189
142
94
158
251
63
137
129
143
212
164
177
289
183
249
168
145
146
170
161
437
159
286
298
278
116
165
128
238
259
160
108
170
248
120
138
0
190
449
124
88
167
194
237
134
110
180
252
94
221
274
200
129
140
318
118
107
102
259
135
196
219
207
233
286
98
259
82
224
132
148
